0 7872.7
1 8044.24
2 7922.46
3 7962.36
4 7830.24
5 7839.85
6 7955.29
7 8073.39
8 7821.73
9 7784.55
10 8055.96
11 7986.17
12 7964.67
13 7784.55
14 8041.03
15 7685.01
16 7903.8
17 7791.35
18 7908.67
19 7678.9
20 7864.08
21 7847.99
22 7808.77
23 7920.4
24 8005.66
25 7877.41
26 8133.14
27 7954.85
28 7962.58
29 7793.48
30 7971.37
31 8044.43
32 7816.43
33 8025.45
34 8125.81
35 7846.59
36 7960.65
37 7900.71
38 8041.53
39 7887.42
40 7633
41 7735.8
42 7900.47
43 7816.24
44 7544.37
45 7875.32
46 8066.22
47 7776.21
48 8004.25
49 7762.12
